NAME : calais312.output_tours.440.535736.tour
TYPE : SOLUTION PTSP
DIMENSION : 312
TOUR_SECTION
SERVICE_TIME = 25192
DAY = 1
Dimention = 49
1
76
75
73
67
40
21
298
267
31
253
262
293
255
258
265
37
185
184
150
135
34
248
41
104
179
25
148
48
58
177
178
8
211
46
78
119
124
232
208
242
5
205
204
279
159
217
294
66
------------
SERVICE_TIME = 25196
DAY = 2
Dimention = 51
1
69
37
110
154
109
260
237
271
259
283
311
281
132
274
273
307
15
276
277
278
206
203
198
297
191
170
172
49
186
53
214
215
261
6
312
252
60
63
95
64
19
90
92
93
183
33
247
246
121
77
------------
SERVICE_TIME = 25037
DAY = 3
Dimention = 58
1
98
169
171
295
194
187
189
197
195
202
227
280
281
18
305
288
284
17
285
310
262
289
251
249
38
134
136
36
149
116
226
2
162
152
113
240
151
150
108
163
137
299
24
160
161
30
168
105
181
23
127
182
125
143
144
122
141
------------
SERVICE_TIME = 25174
DAY = 4
Dimention = 55
1
52
212
213
11
12
10
244
88
236
235
234
42
157
155
83
82
81
80
79
129
85
3
146
55
222
135
34
116
302
112
115
256
268
291
263
264
292
132
228
290
230
231
309
308
275
117
175
176
138
71
70
74
73
72
------------
SERVICE_TIME = 25184
DAY = 5
Dimention = 54
1
99
54
188
130
46
56
63
22
224
59
239
238
57
96
165
142
164
302
301
149
162
151
150
35
260
237
271
255
293
253
285
304
31
287
283
311
18
282
306
4
5
210
209
229
219
198
297
245
14
196
199
200
201
------------
SERVICE_TIME = 25107
DAY = 6
Dimention = 60
1
32
68
139
274
272
286
307
118
267
262
293
258
251
289
265
256
35
37
38
153
110
154
109
111
114
113
163
301
151
108
136
107
41
160
30
223
145
79
84
87
86
133
254
250
312
9
266
7
257
296
270
8
225
60
131
178
120
102
124
------------
SERVICE_TIME = 25183
DAY = 7
Dimention = 58
1
76
75
66
49
20
51
50
97
122
247
119
91
156
166
180
28
62
45
42
167
81
126
161
116
24
302
162
184
260
237
271
255
259
303
291
263
31
298
17
288
305
18
306
281
280
279
205
219
233
220
187
218
216
191
192
193
140
------------
SERVICE_TIME = 25137
DAY = 8
Dimention = 57
1
92
94
147
90
64
88
234
44
155
83
82
81
123
80
129
85
3
146
182
125
100
173
170
169
171
294
197
195
297
203
206
204
16
136
41
36
149
248
185
151
150
34
135
256
310
304
285
268
264
292
273
307
67
69
74
141
------------
SERVICE_TIME = 25176
DAY = 9
Dimention = 60
1
98
295
186
52
53
212
244
13
211
10
214
215
47
56
48
156
174
58
57
19
61
29
165
106
30
160
226
163
300
301
185
112
152
115
113
114
109
249
265
251
310
253
65
132
307
275
309
308
15
276
277
278
117
175
43
40
39
72
141
------------
SERVICE_TIME = 25104
DAY = 10
Dimention = 56
1
49
99
101
144
128
168
23
269
79
126
30
161
116
149
162
24
302
151
150
108
110
153
111
38
35
237
271
255
262
253
303
263
293
268
31
287
283
311
18
280
282
306
4
242
207
208
232
228
231
227
241
43
176
73
76
------------
SERVICE_TIME = 25160
DAY = 11
Dimention = 55
1
124
120
103
92
46
213
11
12
90
27
82
84
127
182
183
161
41
151
150
34
135
134
107
136
158
122
171
172
186
194
201
200
199
196
14
297
198
202
279
281
18
305
288
284
17
298
264
291
259
260
37
140
69
77
------------
SERVICE_TIME = 25035
DAY = 12
Dimention = 60
1
76
32
68
35
256
265
289
251
258
264
267
118
292
273
274
132
309
308
275
117
78
89
95
63
22
224
225
8
261
6
60
131
59
177
45
42
157
167
83
81
80
129
223
160
163
115
154
114
112
2
149
36
125
142
119
102
246
97
121
------------
SERVICE_TIME = 25111
DAY = 13
Dimention = 54
1
143
105
104
146
3
86
87
85
80
79
179
166
156
148
26
93
56
159
16
230
290
5
243
210
209
278
132
31
304
310
285
303
268
293
237
249
37
36
248
163
302
301
162
150
135
34
108
136
222
33
221
75
74
------------
SERVICE_TIME = 25178
DAY = 14
Dimention = 56
1
50
98
169
66
170
51
20
54
186
52
53
212
244
214
94
90
161
160
116
24
226
162
137
299
151
150
184
152
113
38
260
271
255
262
263
21
272
286
307
308
281
306
4
242
207
229
231
297
245
200
217
67
71
70
72
------------
SERVICE_TIME = 25085
DAY = 15
Dimention = 54
1
124
100
173
147
96
57
61
23
25
180
181
28
45
178
235
236
266
133
83
84
30
41
36
302
240
115
113
114
109
111
110
153
201
199
196
14
195
206
205
309
280
18
305
311
283
288
284
17
298
65
117
73
141
------------
SERVICE_TIME = 25167
DAY = 16
Dimention = 54
1
32
69
39
287
204
203
233
220
191
197
198
202
118
264
303
268
259
38
110
154
112
135
134
248
162
163
164
160
116
30
55
223
79
80
81
167
62
174
58
238
22
63
88
64
19
91
92
130
46
142
120
102
122
------------
SERVICE_TIME = 25190
DAY = 17
Dimention = 56
1
165
56
7
257
8
60
42
82
85
129
145
55
226
149
163
24
300
302
301
185
151
150
34
108
136
247
97
49
295
218
216
189
187
219
309
308
132
274
273
292
291
285
304
310
253
262
289
251
258
265
249
256
37
138
139
------------
SERVICE_TIME = 25002
DAY = 18
Dimention = 52
1
101
144
119
126
146
3
87
86
224
225
252
250
312
9
13
211
10
190
140
176
175
117
307
15
277
278
275
280
281
282
18
284
267
31
263
293
255
271
237
260
35
153
109
114
113
115
151
150
136
107
74
------------
SERVICE_TIME = 25193
DAY = 19
Dimention = 55
1
66
170
172
192
193
194
99
171
121
124
128
29
58
131
270
296
239
177
45
44
155
157
167
84
79
116
226
302
151
37
260
271
264
298
17
288
311
306
5
208
232
209
228
229
227
241
279
118
43
40
68
73
75
76
------------
SERVICE_TIME = 25098
DAY = 20
Dimention = 53
1
77
74
71
69
67
134
34
135
184
255
259
268
305
18
280
16
201
200
297
194
294
54
52
53
212
244
214
215
12
11
213
254
59
238
235
234
42
83
82
81
123
80
30
161
160
162
149
36
41
125
33
122
------------
SERVICE_TIME = 25185
DAY = 21
Dimention = 51
1
141
32
286
15
276
278
309
231
230
290
311
283
287
291
263
303
258
251
289
256
237
38
111
114
152
151
150
108
136
183
106
142
57
48
156
60
261
6
188
217
245
14
196
199
169
98
49
186
173
100
------------
SERVICE_TIME = 25198
DAY = 22
Dimention = 56
1
98
50
51
20
197
220
233
219
203
206
204
205
308
132
274
273
292
272
118
262
253
285
304
310
251
265
249
110
154
109
113
115
112
163
24
226
108
146
3
85
129
269
105
168
165
78
89
90
93
147
94
46
47
56
244
------------
SERVICE_TIME = 25194
DAY = 23
Dimention = 58
1
33
221
246
119
120
128
92
91
19
88
95
63
22
156
61
27
179
180
25
166
104
127
182
30
116
302
301
185
151
150
248
162
34
135
107
158
117
39
195
198
202
207
210
5
4
281
280
275
307
65
31
264
271
260
35
37
72
------------
SERVICE_TIME = 25061
DAY = 24
Dimention = 56
1
124
122
247
102
103
143
96
224
225
270
8
257
266
60
131
157
167
83
84
160
226
2
164
299
163
149
36
136
151
152
114
109
111
153
237
256
255
259
293
21
298
17
284
288
311
305
18
282
306
242
243
232
229
191
194
------------
SERVICE_TIME = 25035
DAY = 25
Dimention = 61
1
98
169
66
170
53
186
99
171
121
97
142
93
147
64
148
26
23
181
28
62
45
82
81
80
79
129
87
86
3
146
223
161
24
137
302
185
135
260
265
289
251
258
268
303
253
262
310
291
264
132
307
308
309
279
159
140
139
68
70
77
------------
SERVICE_TIME = 25132
DAY = 26
Dimention = 59
1
76
74
49
20
54
52
53
122
222
41
30
160
24
163
184
151
150
136
226
162
112
109
38
256
263
285
304
31
267
298
287
283
305
18
280
281
306
4
5
208
209
228
231
230
227
202
198
297
245
14
196
199
200
201
16
32
73
141
------------
SERVICE_TIME = 25195
DAY = 27
Dimention = 63
1
75
69
67
140
138
175
117
274
273
275
15
277
278
132
118
268
262
293
255
259
271
237
260
110
154
114
113
115
108
34
107
136
36
248
301
302
300
116
30
55
145
84
79
80
81
42
178
177
239
236
60
59
58
57
61
127
182
125
144
102
100
97
------------
SERVICE_TIME = 25157
DAY = 28
Dimention = 59
1
73
292
272
286
132
307
308
281
306
282
18
305
311
288
17
298
264
263
291
303
289
251
249
35
37
150
135
134
36
162
163
116
3
85
129
82
83
167
174
156
57
19
88
92
56
212
11
12
13
211
10
214
215
244
130
46
120
101
------------
SERVICE_TIME = 25163
DAY = 29
Dimention = 59
1
98
50
171
99
49
201
191
197
198
203
206
204
205
229
309
307
273
118
65
262
253
303
285
258
265
256
260
237
111
113
152
112
151
135
34
108
136
149
226
24
160
161
30
126
87
129
80
79
269
22
235
29
91
142
119
122
247
141
------------
SERVICE_TIME = 25017
DAY = 30
Dimention = 59
1
169
295
53
186
49
20
171
124
46
47
56
147
90
64
25
180
63
131
8
60
45
155
167
83
82
81
223
41
36
2
302
150
135
34
162
152
115
114
111
153
110
271
264
31
304
310
263
288
18
280
308
286
117
43
39
176
74
141
------------
DELAYS_SECTION
-2 -3 -7 -10 0 -10 -10 -10 -3 -2 -6 -10 -6 -2 -6 -3 -3 -4 -10 -15 -6 -6 -4 -15 -15 -15 -9 -14 -3 -6 -8 -1 -5 -5 -3 -6 -5 -15 -15 -8 -2 -12 -13 -8 -8 -14 -15 -4 -9 -9 -6 -3 -5 -8 -7 -8 -10 -10 -6 -10 -11 0 -7 -10 -10 -10 -10 -4 -5 -5 -5 -10 -5 -10 -10 -1 -15 -6 -2 -6 -6 -6 -5 -5 -7 -4 -7 -14 -2 -10 0 -4 -15 -3 -6 -10 -8 -6 -6 -15 -6 -14 -15 -6 -13 -7 -5 -2 -5 -7 -7 -2 -4 -3 -5 -5 -5 -10 -9 -2 -4 -15 -10 -6 -12 -8 -15 -5 -6 -5 -3 -5 -4 -4 -4 -5 -7 -9 -8 -5 -2 -4 -7 -9 -5 -10 -15 -5 -3 -1 0 -7 -1 -4 -9 -3 -12 -15 -4 -4 -1 -2 -10 -10 -15 -8 -11 -4 -4 -3 -1 -7 -9 -8 -9 -15 -15 -15 -10 -5 -7 -4 -10 -10 -6 -1 -7 -2 -15 -7 -11 -13 -4 -2 -6 -4 -1 -6 -7 -5 -1 0 -10 -10 -4 -10 -10 -8 -4 -10 -6 -2 -5 -3 -13 -15 -15 0 -10 -15 -9 -7 -4 -8 -1 0 0 -9 -10 -4 -10 -7 -14 -11 -6 -2 -8 -9 -5 -10 -10 -15 -8 -1 -5 -3 -10 -3 -6 -4 -2 -6 -12 -6 -6 -5 -8 -1 -1 -6 -6 -5 -4 -6 -10 -8 -5 -11 -11 -2 -6 -2 -4 -3 -1 -2 0 -8 -5 0 -7 -1 -9 -2 -8 -6 -4 -1 -6 -6 -5 -6 -15 -4 -13 0 -6 0 -15 -6 -4 -6 -6 -2 -6 -1 -6 -5 -5 0 -2 
-1 -2 -6 -9 -15 -9 -9 -9 -2 -1 -5 -9 -5 -8 -5 -2 -2 -10 -9 -14 -5 -5 -3 -14 -14 -14 -8 -13 -2 -5 -7 -15 -4 -4 -2 -6 -4 -14 -14 -7 -1 -11 -12 -7 -7 -13 -14 -8 -8 -8 -5 -10 -4 -7 -6 -7 -9 -9 -6 -9 -10 -10 -10 -9 -9 -9 -9 -10 -4 -4 -4 -9 -4 -9 -9 -10 -14 -5 -1 -5 -5 -5 -4 -4 -6 -3 -6 -13 -10 -9 -8 -15 -14 -15 -5 -9 -7 -5 -5 -14 -5 -13 -14 -5 -12 -6 -4 -8 -8 -6 -6 -1 -3 -2 -4 -4 -4 -9 -8 -10 -3 -14 -9 -5 -11 -7 -14 -4 -5 -8 -6 -4 -3 -3 -3 -4 -6 -8 -7 -4 -1 -3 -6 -8 -4 -9 -14 -4 -2 0 1 -6 -8 -3 -8 -2 -11 -14 -3 -3 0 -1 -9 -9 -14 -7 -10 -3 -10 -2 -15 -6 -8 -7 -8 -14 -14 -14 -9 -4 -6 -3 -9 -9 -10 0 -6 -1 -14 -15 -10 -12 -3 -1 -5 -3 -8 -5 -6 -4 0 -10 -9 -9 -10 -9 -9 -7 -3 -9 -5 -1 -10 -10 -12 -14 -14 1 -9 -14 -8 -6 -3 -7 0 1 1 -8 -9 -3 -9 -6 -13 -10 -5 -6 -7 -8 -4 -9 -9 -14 -7 0 -15 -15 -9 -2 -5 -3 -15 -5 -11 -5 -5 -4 -7 -6 -6 -15 -5 -4 -3 -5 -9 -7 -4 -10 -10 -6 -5 -8 -8 -2 -15 -8 -8 -7 -4 -6 -6 -6 -8 -1 -7 -5 -3 0 -5 -5 -4 -5 -14 -3 -12 -8 -5 1 -14 -5 -3 -5 -5 -1 -5 -6 -5 -4 -4 -6 -15 
-15 -1 -5 -8 -14 -8 -8 -8 -1 0 -4 -8 -4 -7 -4 -6 -6 -9 -8 -13 -4 -15 -5 -13 -13 -13 -7 -12 -5 -4 -6 -14 -3 -3 -4 -5 -6 -13 -13 -6 0 -10 -11 -6 -6 -12 -13 -7 -7 -7 -4 -9 -3 -6 -5 -6 -8 -8 -5 -8 -9 -9 -9 -8 -8 -8 -8 -9 -3 -3 -3 -8 -3 -8 -8 -9 -13 -4 0 -4 -4 -4 -3 -3 -5 -2 -5 -12 -9 -8 -7 -14 -13 -14 -4 -8 -10 -4 -4 -13 -4 -12 -13 -15 -11 -5 -6 -7 -7 -5 -5 -6 -2 -1 -3 -3 -3 -8 -7 -9 -6 -13 -8 -10 -10 -15 -13 -3 -4 -7 -5 -3 -10 -2 -4 -15 -5 -7 -6 -8 0 -15 -15 -7 -3 -8 -13 -5 -1 -3 -8 -5 -7 -2 -7 -1 -10 -13 -6 -6 -4 -4 -8 -8 -13 -6 -9 -8 -9 -10 -14 -5 -7 -6 -7 -13 -13 -13 -8 -15 -15 -15 -8 -8 -9 -15 -5 -15 -13 -14 -9 -11 -10 -10 -4 -8 -7 -4 -5 -3 -8 -9 -8 -8 -9 -8 -8 -6 -2 -8 -4 0 -9 -9 -11 -13 -13 2 -8 -13 -7 -5 -2 -6 -5 -10 2 -7 -8 -2 -8 -5 -12 -9 -4 -5 -6 -7 -15 -8 -8 -13 -6 1 -14 -14 -8 -8 -4 -6 -14 -4 -10 -4 -4 -3 -6 -5 -5 -14 -6 -3 -2 -4 -8 -6 -3 -9 -9 -5 -4 -7 -7 -1 -14 -7 -7 -6 -6 -6 -5 -5 -10 -6 -6 -4 -6 -6 -4 -4 -3 -4 -13 -15 -11 -7 -6 -15 -13 -4 -2 -6 -4 -6 -4 -5 -4 -3 -6 -5 -14 
-14 -5 -4 -7 -13 -7 -7 -7 -10 -10 -10 -7 -3 -6 -3 -5 -5 -8 -7 -12 -3 -14 -4 -12 -12 -12 -6 -11 -4 -3 -5 -13 -5 -2 -3 -4 -5 -12 -15 -5 -8 -9 -10 -5 -5 -11 -12 -6 -6 -6 -10 -8 -2 -15 -4 -5 -7 -7 -4 -7 -8 -8 -8 -7 -7 -7 -7 -8 -15 -15 -10 -10 -10 -7 -7 -8 -12 -6 -6 -6 -6 -6 -2 -6 -4 -1 -10 -11 -8 -7 -6 -13 -12 -13 -3 -7 -9 -3 -3 -12 -3 -11 -12 -14 -10 -4 -5 -6 -6 -4 -8 -5 -1 -6 -5 -5 -2 -7 -6 -8 -5 -12 -7 -9 -9 -14 -12 -6 -3 -6 -4 -2 -9 -4 -3 -14 -15 -6 -5 -7 1 -14 -14 -6 -8 -7 -12 -4 0 -2 -7 -4 -6 -15 -6 -10 -9 -12 -5 -5 -3 -3 -7 -7 -12 -5 -8 -7 -8 -9 -13 -4 -6 -10 -15 -12 -12 -12 -7 -14 -14 -14 -7 -7 -8 -14 -4 -14 -12 -13 -8 -10 -9 -9 -3 -7 -6 -3 -4 -2 -7 -8 -7 -7 -8 -7 -7 -5 -1 -7 -8 -10 -8 -8 -10 -12 -12 3 -7 -12 -15 -4 -1 -5 -4 -9 -10 -6 -10 -10 -7 -4 -11 -15 -15 -4 -5 -6 -14 -7 -7 -12 -8 2 -13 -13 -7 -7 -3 -5 -13 -3 -9 -3 -6 -2 -5 -4 -4 -13 -5 -6 -6 -3 -7 -5 -6 -8 -8 -4 -3 -6 -8 -6 -13 -6 -6 -5 -5 -5 -4 -4 -9 -5 -5 -3 -5 -5 -10 -6 -8 -3 -12 -14 -10 -6 -5 -14 -12 -3 -4 -5 -3 -5 -3 -4 -6 -6 -5 -4 -13 
-13 -4 -10 -10 -12 -6 -6 -6 -9 -9 -9 -6 -8 -5 -2 -4 -6 -7 -6 -11 -10 -13 -3 -11 -11 -11 -5 -10 -3 -6 -4 -12 -4 -6 -2 -3 -4 -11 -14 -4 -7 -8 -9 -4 -8 -10 -11 -5 -5 -5 -9 -10 -10 -14 -8 -10 -6 -10 -3 -6 -7 -10 -7 -6 -6 -6 -6 -7 -14 -14 -9 -9 -9 -6 -6 -7 -11 -5 -5 -5 -5 -5 -1 -5 -3 0 -9 -10 -7 -6 -5 -12 -11 -12 -15 -6 -8 -10 -2 -11 -2 -10 -11 -13 -9 -3 -4 -5 -5 -3 -7 -4 0 -5 -4 -4 -1 -6 -5 -7 -4 -11 -6 -8 -8 -13 -11 -5 -15 -5 -3 -1 -8 -3 -2 -13 -14 -5 -4 -6 -6 -13 -13 -5 -7 -6 -11 -5 -3 -3 -6 -3 -5 -14 -5 -9 -8 -11 -4 -4 -4 -2 -15 -15 -11 -4 -7 -6 -7 -8 -12 -3 -5 -9 -14 -11 -11 -11 -6 -13 -13 -13 -6 -10 -7 -13 -15 -13 -11 -12 -7 -9 -8 -8 -8 -6 -8 -8 -8 -8 -6 -7 -6 -6 -7 -6 -6 -10 -10 -6 -7 -9 -7 -7 -9 -11 -11 -10 -6 -11 -14 -3 -8 -4 -3 -8 -9 -10 -9 -9 -6 -3 -10 -14 -14 -6 -15 -15 -13 -6 -6 -11 -7 -10 -12 -12 -6 -6 -2 -4 -12 -6 -8 -6 -5 -1 -4 -3 -6 -12 -4 -5 -6 -2 -6 -4 -5 -7 -7 -3 -2 -5 -7 -5 -12 -5 -5 -4 -4 -4 -10 -6 -8 -6 -4 -6 -4 -4 -9 -5 -7 -6 -11 -13 -9 -8 -4 -13 -11 -2 -3 -6 -6 -4 -2 -3 -5 -5 -4 -6 -12 
-12 -3 -9 -9 -11 -15 -10 -15 -8 -8 -8 -5 -7 -4 -1 -3 -5 -6 -5 -10 -9 -12 -2 -10 -10 -10 -4 -9 -5 -5 -10 -11 -3 -5 -1 -6 -6 -10 -13 -8 -6 -7 -8 -8 -7 -9 -10 -4 -4 -4 -8 -9 -9 -13 -7 -9 -5 -9 -6 -5 -6 -9 -6 -5 -5 -5 -10 -6 -13 -13 -8 -8 -8 -5 -5 -6 -10 -6 -4 -4 -4 -4 -6 -4 -8 -8 -8 -9 -6 -5 -4 -11 -10 -11 -14 -5 -7 -9 -1 -10 -10 -9 -10 -12 -8 -8 -6 -8 -8 -8 -6 -6 -4 -4 -3 -3 -5 -5 -10 -10 -3 -10 -10 -7 -7 -12 -10 -4 -14 -8 -6 -15 -7 -2 -4 -12 -13 -15 -3 -5 -5 -12 -12 -15 -6 -5 -10 -4 -2 -3 -5 -8 -8 -13 -4 -8 -7 -10 -6 -3 -3 -4 -14 -14 -10 -3 -6 -5 -6 -7 -11 -2 -4 -8 -13 -10 -10 -10 -5 -12 -12 -12 -5 -9 -6 -12 -14 -12 -10 -11 -6 -8 -7 -7 -7 -5 -7 -7 -7 -7 -5 -6 -5 -5 -6 -5 -5 -9 -9 -5 -6 -8 -6 -6 -8 -10 -10 -9 -5 -10 -13 -15 -7 -10 -2 -7 -8 -9 -8 -8 -5 -2 -9 -13 -13 -5 -14 -14 -12 -5 -5 -10 -6 -9 -15 -11 -5 -5 -15 -6 -11 -5 -15 -5 -4 -15 -8 -2 -5 -11 -6 -4 -5 -6 -10 -8 -4 -6 -15 -2 -10 -4 -8 -4 -11 -4 -4 -3 -3 -3 -9 -5 -7 -5 -10 -5 -3 -6 -8 -4 -6 -5 -10 -12 -15 -7 -3 -12 -10 -8 -2 -5 -5 -3 -1 -6 -4 -4 -3 -5 -15 
-11 -2 -8 -8 -10 -14 -9 -14 -7 -7 -7 -4 -6 -3 0 -6 -6 -5 -10 -9 -8 -11 -5 -9 -9 -9 -15 -8 -4 -6 -9 -10 -2 -4 0 -5 -5 -9 -12 -7 -8 -6 -7 -7 -6 -8 -9 -8 -10 -10 -7 -8 -8 -12 -6 -8 -4 -8 -5 -4 -15 -8 -5 -4 -10 -4 -9 -5 -12 -12 -7 -7 -7 -10 -10 -5 -9 -5 -3 -6 -6 -3 -5 -3 -7 -7 -7 -8 -5 -10 -3 -10 -9 -10 -13 -10 -6 -8 0 -9 -9 -8 -9 -11 -7 -7 -5 -7 -7 -7 -5 -5 -3 -3 -5 -2 -4 -10 -9 -9 -6 -9 -9 -6 -15 -11 -9 -3 -13 -7 -5 -14 -6 -1 -3 -11 -12 -14 -10 -4 -4 -11 -11 -14 -5 -4 -9 -3 -1 -2 -4 -7 -7 -12 -3 -7 -6 -9 -5 -6 -4 -3 -13 -13 -15 -8 -5 -4 -5 -6 -10 -1 -3 -7 -12 -9 -9 -9 -10 -11 -11 -11 -10 -8 -5 -15 -13 -11 -9 -15 -15 -15 -6 -6 -6 -4 -6 -6 -6 -8 -4 -5 -4 -10 -5 -4 -4 -8 -8 -4 -5 -7 -5 -5 -15 -9 -15 -10 -10 -9 -12 -14 -6 -9 -1 -6 -7 -8 -7 -7 -4 -10 -8 -12 -12 -6 -13 -13 -11 -4 -4 -9 -5 -8 -14 -15 -4 -4 -14 -5 -10 -4 -14 -6 -3 -14 -7 -6 -6 -10 -5 -6 -4 -5 -9 -7 -3 -5 -14 -6 -9 -3 -7 -3 -10 -3 -3 -8 -6 -6 -10 -4 -6 -4 -9 -4 -6 -5 -7 -6 -5 -4 -9 -11 -14 -6 -2 -11 -9 -7 -4 -6 -4 -6 -6 -5 -3 -3 -2 -4 -14 
-10 -5 -7 -7 -9 -13 -8 -13 -6 -6 -6 -3 -5 -2 -6 -5 -5 -4 -9 -8 -7 -10 -5 -8 -8 -8 -14 -7 -3 -5 -8 -9 -5 -3 -4 -4 -4 -8 -11 -6 -7 -5 -15 -8 -5 -7 -8 -7 -9 -9 -6 -7 -7 -11 -5 -7 -3 -7 -4 -3 -14 -7 -10 -3 -9 -10 -8 -10 -11 -11 -6 -6 -10 -9 -9 -4 -8 -4 -6 -6 -6 -6 -4 -6 -6 -6 -10 -7 -10 -9 -8 -9 -8 -9 -12 -9 -5 -7 -10 -8 -8 -7 -8 -10 -6 -6 -4 -6 -6 -6 -4 -4 -2 -2 -4 -1 -3 -9 -8 -10 -5 -15 -8 -10 -14 -10 -8 -6 -12 -6 -4 -13 -5 -4 -4 -10 -11 -15 -9 -8 -3 -10 -10 -13 -8 -10 -8 -5 -3 -3 -3 -6 -6 -15 -2 -6 -5 -8 -4 -5 -3 -2 -12 -12 -14 -7 -4 -8 -10 -5 -9 -10 -2 -6 -11 -8 -8 -8 -9 -10 -10 -10 -9 -7 -4 -14 -12 -10 -8 -14 -14 -14 -5 -10 -5 -8 -5 -5 -5 -7 -3 -10 -10 -9 -10 -3 -3 -7 -7 -3 -4 -6 -4 -4 -14 -8 -14 -9 -9 -8 -11 -13 -5 -8 0 -5 -6 -7 -6 -6 -3 -9 -15 -11 -11 -5 -12 -15 -10 -3 -3 -8 -4 -7 -13 -14 -10 -3 -13 -4 -9 -3 -13 -5 -6 -13 -6 -5 -5 -9 -4 -5 -6 -4 -8 -6 -6 -4 -13 -5 -8 -8 -6 -2 -9 -2 -2 -7 -5 -5 -9 -3 -5 -6 -8 -3 -5 -4 -6 -6 -8 -3 -15 -10 -13 -8 -1 -10 -8 -6 -3 -5 -6 -5 -5 -4 -2 -2 -6 -3 -13 
-9 -4 -6 -6 -8 -12 -7 -12 -10 -5 -5 -10 -4 -8 -5 -4 -4 -10 -8 -7 -6 -9 -4 -7 -7 -7 -13 -15 -5 -4 -7 -8 -4 -6 -3 -3 -3 -15 -15 -5 -6 -15 -14 -7 -4 -15 -15 -6 -8 -8 -10 -10 -10 -10 -8 -10 -10 -6 -3 -10 -13 -6 -9 -10 -8 -9 -10 -9 -10 -10 -10 -5 -9 -8 -8 -3 -7 -3 -5 -5 -5 -5 -3 -5 -5 -5 -9 -6 -9 -8 -7 -8 -7 -8 -11 -8 -10 -6 -9 -7 -7 -6 -7 -9 -15 -5 -3 -5 -5 -5 -8 -6 -4 -6 -3 -5 -2 -8 -7 -9 -4 -14 -7 -9 -13 -9 -7 -5 -11 -5 -6 -12 -4 -3 -3 -9 -10 -14 -8 -8 -2 -9 -9 -12 -7 -9 -7 -4 -2 -2 -8 -5 -5 -14 -10 -5 -4 -7 -3 -4 -2 -4 -11 -15 -13 -6 -3 -7 -9 -4 -8 -9 -15 -10 -10 -7 -7 -7 -8 -9 -9 -9 -8 -6 -10 -13 -11 -9 -7 -13 -13 -13 -4 -9 -4 -7 -4 -4 -4 -6 -2 -9 -9 -8 -9 -2 -2 -6 -6 -10 -8 -5 -10 -10 -13 -7 -13 -8 -8 -7 -10 -12 -4 -7 -5 -4 -5 -6 -5 -5 -2 -8 -14 -10 -10 -4 -11 -14 -9 -2 -2 -7 -8 -6 -12 -13 -9 -8 -12 -6 -8 -6 -12 -4 -5 -12 -5 -4 -4 -8 -3 -4 -5 -6 -7 -5 -5 -3 -12 -4 -7 -7 -5 -6 -15 -8 -8 -6 -4 -4 -8 -2 -4 -5 -7 -2 -4 -3 -5 -5 -7 -2 -14 -15 -12 -7 0 -15 -15 -5 -2 -4 -5 -4 -4 -6 -6 -6 -6 -2 -12 
-8 -3 -10 -5 -7 -11 -6 -11 -9 -4 -4 -9 -3 -7 -4 -3 -3 -9 -7 -6 -5 -8 -5 -6 -6 -6 -12 -14 -5 -6 -6 -7 -3 -5 -2 -2 -6 -14 -14 -4 -5 -14 -13 -6 -3 -14 -14 -8 -7 -7 -9 -9 -9 -15 -7 -9 -9 -5 -2 -9 -12 -5 -8 -9 -7 -8 -9 -8 -9 -9 -9 -10 -8 -7 -10 -2 -6 -6 -6 -4 -4 -4 -2 -4 -4 -4 -8 -5 -8 -7 -6 -7 -6 -7 -10 -7 -9 -10 -8 -15 -6 -5 -6 -8 -14 -4 -6 -8 -8 -8 -7 -5 -3 -5 -5 -4 -1 -7 -6 -8 -3 -13 -6 -8 -12 -8 -15 -4 -10 -4 -5 -11 -3 -4 -2 -8 -9 -13 -7 -7 -1 -8 -15 -11 -6 -8 -6 -5 -3 -3 -7 -8 -4 -13 -9 -4 -3 -6 -2 -3 -4 -3 -10 -14 -12 -5 -15 -6 -8 -10 -7 -8 -14 -9 -15 -6 -6 -6 -7 -8 -8 -8 -7 -5 -9 -12 -10 -8 -6 -12 -12 -12 -3 -8 -3 -6 -3 -3 -3 -5 -1 -8 -8 -7 -8 -10 -10 -5 -5 -9 -7 -4 -9 -9 -12 -6 -12 -7 -7 -6 -9 -11 -3 -6 -5 -10 -10 -5 -4 -10 -10 -7 -13 -9 -9 -6 -10 -13 -8 -15 -10 -6 -7 -5 -11 -12 -8 -7 -11 -5 -7 -6 -11 -3 -4 -11 -4 -3 -3 -7 -6 -6 -4 -5 -6 -8 -6 -15 -11 -6 -6 -6 -4 -5 -14 -7 -7 -5 -6 -3 -10 -6 -3 -4 -6 -6 -3 -2 -4 -4 -6 -6 -13 -14 -11 -6 -6 -14 -14 -8 -4 -3 -4 -3 -6 -5 -5 -5 -5 -6 -11 
-7 -2 -9 -4 -6 -10 -5 -10 -8 -10 -10 -8 -8 -6 -3 -6 -6 -8 -6 -5 -4 -7 -4 -15 -5 -15 -11 -13 -4 -5 -5 -15 -5 -4 -1 -6 -5 -13 -13 -8 -4 -13 -12 -5 -8 -13 -13 -7 -6 -6 -8 -8 -8 -14 -6 -8 -8 -4 -1 -8 -11 -4 -7 -8 -6 -10 -8 -7 -8 -8 -8 -9 -7 -6 -9 -10 -5 -5 -5 -3 -6 -3 -6 -3 -3 -3 -7 -4 -7 -6 -5 -6 -5 -6 -9 -6 -8 -9 -7 -14 -5 -15 -5 -7 -13 -8 -5 -7 -7 -7 -6 -4 -2 -4 -4 -3 0 -6 -10 -7 -6 -12 -10 -7 -11 -15 -14 -3 -9 -3 -4 -10 -10 -4 -4 -7 -8 -12 -10 -6 0 -7 -14 -10 -5 -7 -5 -4 -3 -3 -6 -7 -3 -12 -8 -3 -15 -5 -1 -6 -3 -2 -9 -15 -11 -4 -14 -5 -7 -10 -15 -7 -13 -8 -14 -5 -5 -5 -10 -7 -15 -7 -6 -4 -8 -11 -9 -7 -5 -11 -11 -11 -10 -7 -8 -5 -8 -8 -8 -8 -8 -7 -7 -6 -7 -9 -9 -4 -4 -8 -6 -10 -8 -8 -11 -5 -11 -6 -6 -5 -8 -10 -2 -5 -4 -9 -9 -4 -3 -9 -9 -6 -12 -8 -8 -5 -9 -12 -7 -14 -9 -5 -6 -4 -10 -11 -7 -6 -10 -4 -6 -5 -10 -6 -3 -10 -3 -6 -6 -6 -5 -5 -3 -4 -5 -7 -5 -14 -10 -5 -5 -5 -3 -4 -13 -6 -6 -8 -5 -6 -9 -5 -10 -3 -5 -5 -6 -1 -3 -6 -5 -5 -12 -13 -10 -8 -6 -13 -13 -7 -3 -2 -3 -6 -5 -4 -4 -4 -4 -5 -10 
-15 -1 -8 -3 -15 -9 -10 -9 -7 -9 -9 -7 -7 -5 -2 -5 -5 -7 -5 -4 -10 -6 -3 -14 -4 -14 -10 -12 -3 -4 -10 -14 -4 -6 -4 -5 -4 -12 -12 -7 -8 -12 -11 -4 -7 -12 -12 -6 -5 -5 -7 -7 -7 -13 -5 -7 -7 -10 -6 -7 -10 -10 -10 -7 -5 -9 -7 -10 -7 -7 -7 -8 -6 -5 -10 -9 -15 -4 -6 -6 -5 -6 -5 -2 -2 -2 -6 -15 -6 -5 -4 -5 -4 -15 -8 -10 -7 -8 -6 -13 -10 -14 -4 -6 -12 -7 -4 -6 -6 -6 -8 -3 -4 -6 -3 -5 -5 -10 -9 -10 -5 -11 -9 -10 -10 -14 -13 -6 -8 -8 -3 -9 -9 -3 -4 -6 -7 -11 -9 -5 -6 -6 -13 -9 -4 -6 -4 -5 -2 -2 -5 -6 -8 -11 -7 -10 -14 -4 -6 -5 -2 -4 -8 -14 -10 -8 -13 -4 -6 -9 -14 -6 -12 -7 -13 -15 -4 -4 -9 -6 -14 -6 -5 -10 -7 -10 -8 -6 -4 -10 -10 -10 -9 -6 -7 -4 -7 -7 -7 -7 -7 -6 -6 -5 -6 -8 -8 -3 -3 -7 -5 -9 -7 -7 -10 -4 -10 -5 -5 -4 -7 -9 -8 -10 -3 -8 -8 -3 -2 -8 -8 -5 -11 -7 -7 -4 -8 -11 -6 -13 -8 -4 -5 -3 -15 -10 -6 -5 -9 -6 -5 -4 -9 -5 -6 -9 -8 -5 -5 -15 -4 -4 -6 -6 -4 -8 -4 -13 -9 -4 -4 -8 -8 -6 -12 -5 -5 -7 -4 -5 -8 -4 -9 -2 -4 -4 -5 -6 -2 -5 -8 -4 -11 -12 -9 -7 -5 -12 -12 -6 -2 -1 -2 -5 -4 -3 -6 -6 -3 -4 -9 
-14 -5 -7 -10 -14 -8 -9 -8 -6 -8 -8 -6 -6 -4 -6 -4 -4 -6 -4 -3 -9 -5 -2 -13 -15 -13 -9 -11 -2 -6 -9 -15 -5 -5 -3 -6 -3 -11 -11 -6 -7 -11 -10 -3 -6 -11 -11 -5 -4 -4 -6 -6 -6 -12 -8 -6 -6 -9 -5 -6 -9 -9 -9 -6 -4 -8 -6 -9 -6 -6 -6 -7 -10 -10 -9 -8 -14 -6 -5 -5 -4 -5 -4 -6 -8 -8 -5 -14 -5 -4 -3 -15 -15 -14 -15 -9 -6 -7 -5 -12 -9 -13 -15 -15 -11 -8 -6 -5 -5 -5 -7 -2 -3 -5 -2 -4 -4 -9 -8 -9 -4 -10 -8 -9 -9 -13 -12 -5 -7 -7 -6 -8 -8 -4 -4 -5 -6 -10 -8 -4 -5 -15 -12 -8 -8 -5 -15 -4 -1 -1 -4 -5 -7 -10 -10 -9 -13 -15 -5 -4 -4 -4 -7 -13 -15 -7 -12 -3 -5 -8 -13 -5 -11 -6 -12 -14 -3 -15 -8 -5 -13 -15 -4 -9 -6 -9 -7 -5 -3 -9 -9 -9 -8 -5 -6 -3 -6 -6 -6 -6 -6 -5 -5 -4 -5 -7 -7 -10 -10 -6 -4 -8 -6 -6 -9 -3 -9 -4 -4 -15 -15 -8 -7 -9 -2 -7 -7 -2 -10 -7 -7 -4 -10 -6 -6 -6 -7 -10 -5 -12 -7 -15 -4 -2 -14 -9 -10 -8 -8 -5 -4 -3 -8 -4 -5 -8 -7 -4 -4 -14 -3 -3 -5 -5 -3 -7 -6 -12 -8 -3 -3 -7 -7 -5 -11 -4 -8 -6 -3 -4 -7 -3 -8 -6 -3 -3 -4 -5 -10 -4 -7 -6 -10 -11 -8 -6 -4 -11 -11 -8 -1 -6 -6 -4 -3 -2 -5 -5 -6 -3 -8 
-13 -4 -10 -9 -13 -7 -8 -7 -5 -7 -7 -5 -5 -3 -5 -3 -3 -5 -10 -15 -8 -4 -5 -12 -14 -12 -8 -10 -1 -5 -8 -14 -4 -4 -2 -5 -6 -10 -10 -5 -6 -10 -9 -2 -5 -10 -10 -4 -10 -10 -10 -10 -10 -11 -7 -5 -5 -8 -4 -5 -8 -8 -8 -5 -10 -10 -5 -8 -15 -15 -10 -6 -9 -9 -8 -7 -13 -5 -4 -4 -3 -4 -3 -5 -7 -7 -4 -13 -10 -3 -2 -14 -15 -13 -14 -8 -10 -6 -4 -11 -8 -12 -14 -14 -10 -7 -5 -4 -4 -4 -6 -6 -2 -4 -5 -3 -3 -8 -7 -8 -3 -9 -7 -8 -8 -12 -11 -4 -6 -6 -5 -7 -7 -3 -3 -15 -5 -9 -7 -3 -4 -14 -11 -7 -7 -10 -14 -3 -3 -3 -8 -4 -6 -9 -9 -8 -12 -14 -6 -3 -4 -3 -6 -12 -14 -6 -11 -8 -10 -7 -12 -4 -10 -5 -11 -13 -2 -14 -7 -4 -12 -14 -10 -8 -10 -8 -6 -4 -2 -8 -8 -8 -7 -4 -5 -2 -5 -5 -8 -5 -5 -4 -4 -3 -4 -10 -6 -9 -9 -5 -8 -7 -10 -5 -8 -15 -8 -3 -3 -14 -14 -7 -6 -8 -5 -6 -6 -10 -9 -10 -6 -3 -9 -5 -5 -5 -6 -9 -4 -11 -10 -14 -8 -10 -13 -8 -9 -7 -7 -4 -3 -2 -7 -6 -4 -7 -6 -3 -6 -13 -6 -6 -4 -4 -2 -6 -5 -11 -7 -6 -10 -6 -6 -4 -10 -3 -7 -5 -2 -6 -6 -2 -7 -5 -10 -2 -3 -4 -9 -3 -6 -5 -9 -10 -7 -8 -3 -15 -10 -7 0 -5 -5 -3 -6 -6 -6 -4 -5 -2 -7 
-12 -3 -9 -8 -12 -6 -7 -6 -4 -6 -6 -4 -8 -2 -4 -6 -6 -4 -9 -14 -7 -15 -4 -15 -13 -11 -15 -9 -5 -4 -7 -13 -3 -3 -4 -4 -5 -9 -9 -8 -5 -9 -8 -8 -4 -9 -9 -3 -9 -9 -9 -9 -9 -10 -6 -10 -4 -7 -3 -10 -7 -7 -7 -10 -9 -9 -4 -7 -14 -14 -9 -10 -8 -8 -7 -6 -12 -4 -3 -3 -2 -6 -6 -4 -6 -6 -3 -12 -9 -10 -1 -13 -14 -12 -13 -7 -9 -5 -10 -10 -7 -11 -13 -13 -9 -6 -4 -8 -8 -8 -5 -6 -4 -6 -4 -5 -2 -7 -6 -7 -2 -8 -10 -7 -7 -11 -10 -3 -5 -5 -4 -15 -6 -2 -2 -14 -4 -8 -6 -8 -3 -13 -10 -6 -6 -10 -13 -2 -2 -2 -7 -8 -5 -8 -8 -7 -11 -13 -5 -2 -3 -2 -5 -11 -13 -5 -10 -7 -9 -6 -11 -10 -9 -4 -10 -12 -15 -13 -10 -15 -11 -13 -9 -7 -9 -7 -5 -3 -1 -7 -7 -7 -6 -10 -8 -1 -4 -8 -7 -8 -4 -3 -3 -10 -10 -9 -5 -8 -8 -4 -7 -6 -9 -4 -7 -14 -7 -2 -2 -13 -13 -6 -5 -7 -4 -5 -5 -9 -8 -9 -5 -2 -8 -15 -15 -4 -5 -8 -15 -10 -9 -13 -7 -9 -12 -7 -8 -6 -6 -3 -2 -1 -6 -5 -3 -6 -5 -2 -5 -12 -5 -5 -3 -3 -10 -5 -4 -10 -6 -5 -9 -5 -5 -3 -9 -2 -6 -4 -6 -5 -5 -6 -6 -4 -9 -1 -6 -3 -8 -2 -5 -4 -8 -9 -6 -7 -6 -14 -9 -6 -4 -4 -4 -6 -5 -6 -5 -6 -4 -6 -6 
-11 -2 -8 -7 -11 -5 -6 -5 -3 -5 -5 -3 -7 -1 -3 -5 -5 -10 -8 -13 -10 -14 -3 -14 -12 -10 -14 -8 -5 -3 -10 -12 -2 -2 -3 -3 -6 -8 -8 -7 -4 -8 -7 -7 -8 -8 -8 -2 -8 -8 -8 -8 -8 -9 -5 -9 -10 -6 -2 -9 -15 -10 -10 -9 -8 -8 -3 -6 -13 -15 -8 -9 -7 -7 -6 -5 -11 -6 -6 -6 -1 -5 -5 -3 -5 -5 -10 -11 -8 -10 -8 -12 -13 -11 -12 -6 -8 -4 -9 -9 -10 -10 -12 -12 -8 -5 -3 -7 -7 -7 -8 -6 -3 -5 -5 -4 -5 -6 -10 -6 -6 -7 -9 -6 -6 -10 -9 -2 -15 -8 -3 -14 -5 -4 -1 -13 -3 -7 -5 -7 -6 -12 -9 -5 -5 -9 -12 -1 -1 -3 -6 -7 -8 -7 -7 -6 -10 -12 -6 -6 -4 -4 -15 -10 -12 -8 -9 -6 -8 -5 -10 -9 -15 -3 -9 -11 -14 -12 -9 -14 -10 -12 -8 -6 -8 -6 -4 -2 0 -15 -6 -6 -5 -9 -7 -8 -8 -7 -6 -7 -8 -10 -10 -9 -9 -8 -4 -7 -7 -3 -6 -5 -8 -3 -6 -13 -6 -1 -10 -12 -12 -15 -4 -6 -5 -4 -4 -8 -7 -8 -4 -10 -7 -14 -14 -3 -15 -7 -14 -9 -8 -12 -6 -8 -11 -6 -7 -5 -5 -2 -1 0 -5 -4 -2 -5 -4 -6 -4 -11 -4 -4 -6 -2 -9 -4 -6 -9 -5 -4 -8 -4 -4 -2 -8 -1 -5 -3 -5 -4 -4 -5 -5 -3 -8 -6 -5 -2 -7 -1 -4 -3 -7 -8 -5 -6 -5 -13 -8 -5 -3 -6 -3 -5 -4 -5 -4 -5 -3 -5 -5 
-10 -1 -7 -6 -10 -15 -10 -4 -2 -4 -4 -2 -6 0 -2 -4 -4 -9 -7 -12 -9 -13 -5 -13 -11 -9 -13 -7 -4 -2 -9 -11 -5 -1 -2 -6 -5 -7 -7 -6 -8 -7 -6 -6 -7 -7 -7 -8 -7 -7 -7 -7 -7 -8 -8 -8 -9 -10 -6 -8 -14 -9 -9 -8 -7 -7 -2 -5 -12 -14 -7 -8 -6 -6 -5 -4 -10 -5 -5 -5 -6 -4 -4 -6 -4 -4 -9 -10 -7 -9 -7 -11 -12 -10 -11 -10 -7 -3 -8 -8 -9 -9 -11 -11 -7 -4 -6 -6 -6 -6 -7 -5 -2 -4 -4 -3 -4 -5 -9 -5 -6 -6 -8 -5 -5 -9 -8 -6 -14 -7 -6 -13 -4 -3 -4 -12 -15 -15 -4 -6 -5 -11 -8 -15 -4 -8 -11 -5 -3 -3 -5 -6 -7 -6 -6 -5 -9 -11 -5 -5 -3 -4 -14 -15 -11 -7 -8 -5 -7 -4 -9 -8 -14 -2 -8 -10 -13 -11 -8 -13 -9 -11 -7 -10 -7 -15 -3 -15 1 -14 -5 -5 -4 -8 -6 -7 -7 -6 -5 -6 -7 -9 -9 -8 -8 -7 -3 -6 -6 -2 -5 -4 -7 -2 -15 -12 -15 -10 -9 -11 -11 -14 -3 -5 -5 -3 -3 -7 -6 -7 -3 -9 -6 -13 -13 -2 -14 -6 -13 -8 -7 -11 -5 -7 -10 -15 -6 -8 -4 -6 0 -6 -4 -3 -6 -15 -8 -5 -3 -10 -6 -3 -5 -6 -8 -3 -5 -8 -4 -3 -7 -8 -8 -1 -7 0 -4 -2 -4 -3 -3 -4 -4 -6 -7 -5 -4 -6 -6 -6 -8 -2 -6 -15 -4 -5 -4 -12 -15 -8 -2 -5 -6 -4 -3 -4 -6 -4 -6 -4 -4 
-9 -5 -6 -5 -9 -14 -9 -15 -10 -3 -3 -10 -5 -8 -1 -3 -6 -8 -6 -11 -8 -12 -4 -12 -10 -8 -12 -6 -3 -6 -8 -10 -4 -6 -1 -5 -4 -6 -6 -5 -7 -6 -5 -5 -6 -6 -6 -7 -6 -6 -6 -6 -6 -7 -7 -7 -8 -9 -5 -7 -13 -8 -8 -7 -6 -6 -1 -4 -11 -13 -6 -7 -10 -5 -4 -3 -9 -4 -4 -4 -5 -3 -3 -5 -8 -8 -8 -9 -6 -8 -6 -10 -11 -9 -10 -9 -6 -2 -7 -15 -8 -8 -10 -10 -6 -8 -5 -8 -5 -5 -6 -6 -4 -6 -3 -5 -3 -10 -8 -4 -5 -5 -7 -4 -4 -8 -7 -5 -13 -6 -5 -12 -3 -2 -4 -11 -14 -14 -10 -5 -6 -10 -15 -14 -8 -7 -10 -4 -3 -2 -4 -8 -6 -5 -5 -4 -8 -10 -4 -4 -2 -3 -13 -14 -10 -6 -7 -4 -6 -3 -8 -7 -13 -10 -15 -9 -12 -10 -7 -12 -8 -10 -6 -9 -6 -14 -2 -14 -15 -13 -4 -4 -3 -7 -5 -6 -6 -5 -4 -5 -6 -8 -8 -7 -7 -6 -2 -5 -5 -10 -4 -3 -6 -1 -14 -11 -14 -9 -8 -10 -10 -13 -8 -10 -4 -2 -2 -6 -5 -6 -2 -8 -5 -12 -12 -6 -13 -5 -12 -7 -6 -10 -8 -6 -9 -14 -5 -7 -15 -5 -15 -5 -3 -6 -5 -14 -7 -4 -6 -9 -5 -6 -4 -5 -7 -8 -4 -7 -3 -6 -6 -7 -7 -6 -6 -8 -8 -1 -6 -6 -10 -3 -10 -5 -6 -4 -3 -5 -5 -5 -7 -6 -5 -14 -3 -4 -3 -11 -14 -7 -1 -4 -5 -3 -2 -6 -5 -3 -5 -3 -15 
-8 -4 -5 -10 -8 -13 -8 -14 -9 -2 -2 -9 -4 -7 0 -6 -5 -7 -5 -10 -7 -11 -3 -11 -9 -7 -11 -15 -2 -5 -7 -9 -3 -6 0 -6 -3 -5 -15 -4 -6 -15 -15 -8 -5 -5 -15 -6 -5 -5 -5 -5 -5 -6 -6 -6 -10 -8 -4 -6 -12 -7 -7 -6 -10 -5 -10 -3 -10 -12 -5 -10 -9 -10 -10 -2 -8 -6 -3 -3 -4 -2 -6 -4 -7 -7 -7 -8 -5 -7 -5 -9 -10 -8 -9 -8 -5 -10 -6 -14 -7 -7 -9 -9 -5 -7 -4 -7 -4 -4 -5 -5 -3 -5 -5 -4 -5 -9 -7 -10 -4 -4 -6 -3 -15 -7 -6 -4 -12 -8 -4 -11 -2 -1 -3 -10 -13 -13 -9 -4 -5 -9 -14 -13 -7 -6 -9 -3 -2 -3 -3 -7 -5 -15 -4 -10 -7 -9 -3 -3 -1 -2 -12 -13 -9 -8 -6 -3 -10 -10 -15 -6 -12 -9 -14 -15 -11 -9 -6 -11 -7 -9 -5 -8 -5 -13 -1 -13 -14 -12 -15 -15 -2 -6 -4 -5 -5 -4 -3 -4 -5 -7 -7 -6 -6 -5 -10 -10 -4 -9 -3 -2 -5 0 -13 -10 -13 -8 -7 -9 -9 -12 -7 -9 -5 -10 -10 -10 -4 -5 -10 -7 -4 -11 -11 -5 -12 -15 -11 -15 -5 -9 -7 -5 -8 -13 -10 -6 -14 -4 -14 -4 -2 -5 -4 -13 -6 -3 -6 -8 -4 -5 -6 -4 -6 -7 -3 -6 -15 -5 -5 -6 -6 -5 -5 -7 -7 -8 -5 -5 -9 -2 -9 -4 -5 -3 -6 -4 -4 -4 -6 -5 -4 -13 -15 -3 -6 -10 -13 -6 -4 -3 -4 -2 -6 -5 -4 -2 -4 -6 -14 
-7 -3 -4 -9 -7 -12 -7 -13 -8 -10 -10 -8 -3 -6 -6 -5 -6 -6 -4 -9 -6 -10 -2 -10 -8 -6 -10 -14 -5 -4 -6 -8 -5 -5 -4 -5 -2 -4 -14 -8 -8 -14 -14 -7 -4 -4 -14 -5 -4 -4 -10 -10 -10 -5 -5 -5 -9 -10 -3 -5 -11 -6 -6 -5 -9 -10 -9 -2 -9 -15 -4 -9 -8 -9 -9 -10 -7 -5 -6 -6 -6 -6 -5 -3 -6 -6 -6 -7 -4 -6 -4 -8 -9 -7 -8 -7 -4 -9 -5 -13 -6 -6 -15 -8 -4 -6 -3 -6 -3 -3 -4 -4 -2 -4 -4 -3 -4 -8 -6 -9 -6 -15 -5 -10 -14 -6 -5 -3 -11 -7 -3 -10 -10 -4 -2 -9 -12 -12 -8 -3 -4 -8 -13 -12 -6 -5 -8 -5 -1 -2 -2 -6 -4 -14 -3 -9 -6 -8 -6 -6 -4 -1 -11 -12 -8 -7 -5 -2 -9 -9 -14 -5 -11 -8 -13 -14 -10 -8 -5 -10 -6 -8 -10 -7 -4 -12 0 -12 -13 -11 -14 -14 -10 -5 -3 -4 -4 -3 -8 -8 -4 -6 -6 -5 -5 -4 -9 -9 -3 -8 -8 -10 -10 -10 -12 -9 -12 -7 -6 -8 -8 -11 -6 -8 -4 -9 -9 -9 -3 -4 -9 -6 -15 -15 -15 -4 -15 -14 -10 -14 -4 -8 -8 -4 -7 -12 -9 -5 -13 -3 -13 -3 -15 -6 -3 -12 -5 -6 -5 -7 -3 -4 -5 -3 -5 -6 -6 -5 -14 -4 -4 -5 -5 -4 -4 -6 -6 -7 -4 -4 -8 -1 -10 -3 -4 -2 -5 -3 -3 -3 -5 -4 -15 -12 -14 -8 -6 -9 -12 -5 -3 -2 -3 -6 -5 -4 -3 -1 -3 -5 -13 
-6 -2 -3 -8 -15 -11 -6 -12 -7 -9 -9 -7 -8 -8 -5 -4 -5 -5 -3 -8 -5 -9 -1 -9 -7 -5 -9 -13 -4 -3 -10 -7 -4 -4 -3 -4 -6 -3 -13 -7 -7 -13 -13 -6 -3 -3 -15 -8 -3 -3 -9 -9 -9 -4 -4 -10 -8 -9 -6 -4 -10 -5 -5 -4 -8 -9 -8 -1 -8 -14 -3 -8 -7 -8 -8 -9 -6 -4 -5 -5 -5 -5 -4 -2 -5 -5 -5 -6 -3 -5 -3 -7 -8 -6 -7 -6 -10 -8 -10 -12 -5 -5 -14 -7 -15 -5 -6 -5 -2 -8 -3 -3 -4 -3 -3 -2 -3 -7 -5 -8 -5 -14 -4 -9 -13 -5 -4 -2 -10 -6 -2 -9 -9 -3 -4 -8 -11 -11 -7 -8 -6 -7 -12 -11 -5 -4 -7 -4 -3 -3 -8 -5 -3 -13 -10 -8 -5 -7 -5 -5 -3 0 -10 -11 -7 -6 -4 -8 -8 -8 -13 -10 -10 -7 -12 -13 -9 -7 -4 -9 -5 -15 -9 -6 -10 -11 -15 -11 -12 -10 -13 -13 -9 -4 -8 -3 -3 -8 -7 -7 -3 -5 -5 -4 -4 -3 -8 -8 -2 -7 -7 -9 -9 -9 -11 -15 -11 -6 -5 -7 -7 -10 -5 -7 -3 -8 -8 -8 -10 -10 -8 -5 -14 -14 -14 -6 -14 -13 -9 -13 -3 -7 -7 -10 -6 -11 -8 -4 -12 -2 -12 -2 -14 -5 -6 -11 -4 -5 -4 -15 -2 -6 -4 -2 -4 -5 -5 -4 -13 -6 -3 -4 -4 -3 -15 -5 -8 -6 -3 -3 -10 -6 -9 -2 -10 -6 -4 -6 -10 -6 -4 -3 -14 -11 -13 -7 -5 -8 -11 -4 -2 -6 -2 -5 -4 -3 -2 -6 -2 -6 -12 
-5 -5 -2 -7 -14 -10 -5 -11 -6 -8 -8 -6 -7 -7 -4 -3 -4 -4 -10 -7 -4 -8 -5 -8 -6 -4 -8 -12 -3 -2 -9 -6 -3 -3 -2 -3 -5 -2 -12 -6 -6 -12 -12 -5 -8 -15 -14 -7 -10 -10 -8 -8 -8 -15 -8 -9 -7 -8 -5 -3 -9 -4 -4 -3 -7 -8 -7 0 -7 -13 -2 -7 -6 -7 -7 -8 -15 -3 -4 -4 -4 -4 -3 -6 -4 -4 -4 -15 -10 -4 -2 -6 -15 -5 -6 -5 -9 -7 -9 -11 -4 -4 -13 -15 -14 -4 -6 -8 -8 -7 -8 -6 -3 -6 -2 -1 -5 -6 -4 -7 -4 -13 -3 -8 -12 -4 -3 -6 -9 -5 -6 -8 -8 -2 -3 -7 -10 -10 -6 -7 -5 -6 -11 -10 -8 -10 -6 -5 -2 -2 -7 -4 -8 -12 -9 -7 -4 -6 -4 -4 -2 -4 -9 -10 -6 -5 -15 -7 -7 -7 -12 -9 -9 -6 -11 -12 -8 -6 -3 -8 -4 -14 -8 -5 -9 -10 -14 -10 -11 -9 -12 -12 -8 -3 -7 -8 -2 -7 -6 -6 -2 -10 -10 -10 -10 -2 -7 -7 -1 -6 -6 -8 -8 -8 -10 -14 -10 -10 -10 -6 -6 -9 -4 -6 -5 -7 -7 -7 -9 -9 -7 -10 -13 -13 -13 -5 -13 -12 -8 -12 -2 -6 -8 -9 -5 -10 -7 -8 -11 -6 -11 -6 -13 -4 -5 -10 -3 -4 -3 -14 -6 -5 -3 -6 -3 -8 -4 -15 -12 -5 -10 -8 -8 -2 -14 -4 -7 -5 -2 -2 -9 -5 -8 -6 -9 -5 -3 -5 -9 -5 -8 -2 -13 -10 -12 -6 -4 -7 -10 -3 -1 -5 -6 -4 -3 -2 -6 -5 -6 -5 -11 
-4 -4 -10 -6 -13 -9 -4 -10 -5 -7 -7 -5 -6 -6 -3 -2 -3 -10 -9 -6 -10 -7 -4 -15 -5 -15 -7 -11 -5 -6 -8 -15 -5 -6 -1 -6 -4 -15 -11 -5 -5 -11 -11 -4 -7 -14 -13 -6 -9 -9 -7 -7 -7 -14 -7 -8 -6 -7 -4 -10 -8 -10 -3 -10 -6 -7 -6 -10 -6 -12 -10 -6 -5 -6 -6 -7 -14 -2 -3 -3 -3 -3 -2 -5 -3 -3 -10 -14 -9 -10 -8 -5 -14 -15 -5 -4 -8 -6 -8 -10 -3 -3 -12 -14 -13 -8 -5 -7 -7 -6 -7 -5 -2 -5 -5 -5 -4 -10 -10 -6 -3 -12 -2 -7 -11 -15 -15 -5 -8 -4 -5 -7 -7 -4 -2 -6 -9 -9 -5 -6 -4 -5 -10 -9 -7 -9 -5 -4 -3 -3 -6 -3 -7 -11 -10 -6 -15 -5 -6 -3 -4 -3 -8 -9 -15 -4 -14 -6 -6 -6 -11 -8 -8 -5 -10 -11 -7 -15 -10 -7 -15 -13 -7 -10 -8 -9 -13 -9 -10 -8 -11 -11 -7 -10 -6 -7 -8 -6 -5 -5 -8 -9 -9 -9 -9 -10 -6 -6 -10 -5 -5 -7 -7 -7 -9 -13 -9 -9 -9 -15 -5 -8 -3 -5 -4 -6 -6 -6 -8 -8 -6 -9 -12 -12 -12 -4 -12 -11 -7 -11 -1 -5 -7 -8 -15 -9 -10 -7 -10 -5 -10 -5 -12 -3 -4 -9 -2 -3 -6 -13 -5 -4 -6 -5 -2 -7 -3 -14 -11 -6 -9 -7 -7 -6 -13 -3 -6 -4 -6 -6 -8 -4 -7 -5 -8 -4 -2 -4 -8 -4 -7 -1 -12 -9 -11 -5 -3 -6 -9 -8 -4 -4 -5 -3 -2 -6 -5 -4 -5 -4 -10 
-15 -3 -9 -5 -12 -8 -10 -9 -4 -6 -6 -4 -5 -5 -2 -6 -2 -9 -8 -15 -9 -6 -5 -14 -4 -14 -6 -10 -4 -5 -7 -14 -4 -5 -4 -5 -3 -14 -10 -4 -8 -10 -10 -3 -6 -13 -12 -5 -8 -8 -6 -6 -6 -13 -6 -7 -5 -6 -3 -9 -7 -9 -2 -9 -5 -6 -5 -9 -5 -11 -9 -5 -4 -5 -5 -6 -13 -1 -2 -2 -2 -6 -6 -4 -2 -2 -9 -13 -8 -9 -7 -4 -13 -14 -15 -3 -7 -5 -7 -9 -10 -15 -11 -13 -12 -7 -4 -6 -6 -8 -6 -4 -4 -4 -4 -4 -3 -9 -9 -5 -6 -11 -10 -6 -15 -14 -14 -4 -7 -8 -4 -6 -6 -3 -4 -15 -8 -8 -4 -5 -3 -15 -9 -8 -6 -8 -4 -5 -2 -3 -8 -8 -6 -10 -9 -10 -14 -4 -5 -2 -3 -2 -7 -8 -14 -8 -13 -5 -5 -5 -10 -7 -7 -4 -9 -10 -6 -14 -9 -6 -14 -12 -6 -9 -7 -8 -12 -8 -9 -15 -10 -10 -10 -9 -5 -6 -7 -5 -4 -4 -8 -8 -8 -8 -8 -9 -5 -5 -9 -4 -4 -6 -6 -6 -8 -12 -8 -8 -8 -14 -4 -7 -8 -10 -5 -5 -5 -10 -7 -10 -10 -8 -15 -11 -11 -6 -11 -10 -6 -10 -10 -15 -6 -7 -14 -15 -9 -6 -9 -4 -9 -4 -11 -6 -6 -15 -1 -6 -5 -12 -4 -3 -5 -4 -10 -6 -2 -13 -10 -5 -8 -6 -6 -5 -12 -2 -5 -3 -5 -5 -10 -3 -10 -4 -7 -3 -6 -3 -7 -3 -6 -6 -11 -8 -10 -4 -6 -15 -8 -7 -3 -3 -4 -6 -6 -5 -4 -3 -4 -6 -9 
-14 -5 -8 -4 -11 -7 -9 -8 -3 -5 -5 -3 -4 -4 -1 -5 -1 -8 -7 -14 -8 -15 -5 -15 -15 -13 -5 -9 -3 -4 -6 -13 -3 -4 -3 -4 -2 -13 -9 -3 -7 -9 -9 -8 -5 -12 -11 -4 -7 -7 -5 -10 -5 -12 -5 -6 -4 -5 -2 -8 -6 -8 -10 -8 -10 -5 -10 -8 -15 -10 -8 -4 -3 -4 -10 -10 -12 -6 -6 -6 -6 -5 -5 -3 -8 -8 -8 -12 -7 -8 -6 -15 -12 -13 -14 -10 -10 -10 -6 -15 -9 -14 -10 -12 -11 -6 -3 -5 -5 -7 -5 -3 -3 -3 -5 -3 -2 -8 -8 -10 -5 -10 -9 -5 -14 -13 -13 -6 -6 -7 -3 -5 -5 -4 -3 -15 -7 -15 -10 -4 -6 -14 -8 -7 -8 -10 -15 -4 -3 -2 -7 -7 -5 -9 -8 -9 -13 -15 -4 -6 -2 -1 -6 -7 -13 -7 -12 -8 -10 -10 -9 -6 -6 -3 -8 -9 -5 -13 -8 -15 -13 -11 -5 -8 -10 -7 -11 -7 -8 -14 -9 -9 -9 -8 -4 -5 -6 -4 -3 -3 -7 -7 -7 -7 -7 -8 -4 -4 -8 -3 -3 -5 -5 -5 -7 -11 -7 -7 -7 -13 -3 -15 -7 -9 -4 -4 -4 -9 -6 -9 -9 -7 -14 -10 -10 -5 -10 -9 -5 -9 -9 -14 -5 -6 -13 -14 -8 -8 -8 -6 -8 -6 -10 -5 -5 -14 -8 -5 -6 -11 -6 -2 -4 -6 -9 -5 -6 -12 -9 -4 -7 -5 -5 -4 -11 -1 -4 -8 -4 -4 -9 -2 -9 -3 -6 -2 -5 -6 -6 -6 -5 -5 -10 -7 -9 -3 -5 -14 -7 -6 -2 -6 -3 -5 -5 -6 -6 -6 -6 -5 -8 
-13 -4 -10 -10 -10 -6 -8 -7 -2 -4 -4 -2 -8 -3 -6 -4 -6 -7 -10 -13 -7 -14 -5 -14 -14 -12 -4 -8 -2 -6 -5 -12 -2 -3 -2 -3 -6 -12 -8 -8 -6 -8 -8 -7 -4 -11 -10 -8 -6 -6 -10 -9 -10 -11 -4 -5 -3 -4 -1 -7 -5 -7 -9 -7 -9 -4 -9 -7 -14 -9 -7 -10 -10 -3 -9 -9 -11 -5 -5 -5 -5 -4 -4 -2 -7 -7 -7 -11 -6 -7 -5 -14 -11 -12 -13 -10 -9 -9 -5 -14 -8 -13 -9 -11 -10 -5 -2 -8 -4 -8 -8 -2 -2 -6 -4 -5 -1 -7 -7 -9 -6 -9 -8 -4 -13 -12 -12 -5 -5 -6 -2 -4 -10 -4 -2 -14 -6 -14 -9 -8 -5 -13 -7 -6 -7 -9 -14 -3 -3 -3 -6 -6 -4 -8 -7 -8 -12 -14 -6 -5 -4 -4 -15 -6 -12 -6 -11 -7 -9 -9 -8 -5 -5 -2 -7 -8 -4 -12 -7 -14 -12 -10 -10 -7 -9 -6 -10 -6 -7 -13 -8 -8 -8 -7 -8 -4 -5 -8 -8 -8 -8 -6 -6 -6 -6 -7 -10 -10 -7 -2 -2 -4 -4 -4 -6 -10 -6 -6 -6 -12 -15 -14 -6 -8 -3 -10 -10 -8 -10 -8 -10 -6 -13 -9 -9 -4 -9 -8 -4 -8 -8 -13 -4 -10 -12 -13 -7 -7 -7 -5 -7 -5 -9 -4 -6 -13 -7 -4 -5 -10 -5 -6 -3 -6 -8 -8 -5 -11 -8 -3 -6 -4 -4 -3 -10 0 -3 -7 -6 -3 -8 -6 -8 -6 -5 -6 -4 -5 -5 -5 -4 -4 -9 -6 -8 -8 -6 -13 -6 -5 -1 -5 -6 -6 -4 -5 -5 -5 -5 -4 -7 
-12 -3 -9 -9 -9 -5 -7 -6 -1 -3 -3 -1 -7 -8 -5 -3 -5 -6 -9 -12 -6 -13 -4 -13 -13 -11 -3 -7 -5 -5 -10 -11 -5 -6 -4 -6 -5 -11 -7 -7 -8 -7 -7 -6 -3 -10 -9 -7 -5 -5 -9 -8 -9 -15 -3 -4 -10 -10 -6 -10 -15 -6 -8 -6 -8 -10 -10 -10 -13 -15 -6 -9 -9 -10 -8 -8 -10 -4 -4 -6 -4 -3 -6 -1 -6 -6 -6 -10 -5 -6 -4 -13 -10 -11 -12 -9 -8 -8 -10 -13 -7 -12 -8 -10 -9 -8 -6 -7 -8 -7 -7 -6 -4 -6 -5 -5 -5 -6 -6 -8 -5 -8 -7 -10 -12 -11 -11 -4 -4 -8 -6 -3 -10 -3 -4 -13 -15 -13 -8 -7 -4 -12 -6 -15 -6 -8 -13 -5 -2 -2 -5 -5 -8 -7 -6 -7 -11 -13 -5 -4 -3 -4 -14 -5 -11 -8 -10 -6 -8 -8 -7 -10 -4 -10 -6 -15 -15 -11 -6 -13 -11 -9 -9 -10 -8 -5 -9 -5 -6 -12 -7 -7 -7 -6 -7 -3 -4 -7 -7 -7 -7 -5 -5 -5 -5 -6 -9 -9 -6 -1 -1 -3 -3 -3 -5 -9 -5 -5 -5 -11 -14 -13 -5 -7 -2 -9 -9 -7 -9 -7 -9 -5 -12 -8 -8 -6 -8 -15 -3 -7 -7 -12 -3 -9 -11 -12 -6 -6 -6 -4 -6 -4 -8 -6 -5 -12 -6 -6 -6 -9 -4 -5 -2 -5 -7 -7 -6 -10 -7 -6 -5 -8 -8 -6 -9 -8 -8 -6 -5 -2 -7 -5 -7 -5 -4 -5 -3 -4 -4 -4 -3 -6 -8 -5 -7 -7 -5 -12 -5 -8 -4 -4 -5 -5 -3 -4 -4 -4 -4 -3 -6 
-11 -5 -8 -8 -8 -4 -6 -5 -10 -10 -10 -10 -6 -7 -4 -6 -6 -5 -8 -11 -5 -12 -5 -12 -12 -10 -15 -6 -4 -4 -9 -10 -4 -5 -3 -5 -4 -10 -6 -8 -7 -6 -6 -5 -8 -9 -8 -6 -4 -4 -8 -7 -8 -14 -8 -10 -9 -9 -5 -9 -14 -5 -7 -5 -7 -9 -9 -9 -12 -14 -10 -8 -8 -9 -7 -7 -9 -3 -6 -5 -6 -6 -5 -6 -5 -5 -5 -9 -4 -5 -3 -12 -9 -10 -11 -8 -7 -7 -9 -12 -6 -11 -7 -9 -8 -7 -5 -6 -7 -6 -6 -5 -3 -5 -5 -4 -4 -5 -10 -7 -4 -7 -6 -9 -11 -10 -10 -6 -15 -7 -5 -2 -9 -4 -4 -12 -14 -12 -7 -6 -3 -11 -5 -14 -8 -7 -12 -4 -3 -3 -8 -4 -7 -6 -10 -6 -10 -12 -6 -3 -4 -4 -13 -4 -10 -7 -9 -5 -7 -7 -6 -9 -15 -9 -5 -14 -14 -10 -10 -12 -10 -8 -8 -9 -7 -4 -8 -4 -5 -11 -6 -6 -6 -5 -6 -2 -3 -6 -6 -6 -6 -4 -4 -4 -4 -5 -8 -8 -5 -10 -8 -2 -10 -10 -4 -8 -4 -4 -4 -10 -13 -12 -4 -6 -1 -8 -8 -6 -8 -6 -8 -4 -11 -7 -7 -5 -7 -14 -2 -6 -6 -11 -8 -8 -10 -11 -5 -5 -5 -3 -5 -3 -7 -5 -4 -11 -8 -5 -5 -8 -3 -4 -6 -4 -6 -6 -5 -9 -6 -5 -10 -7 -8 -5 -8 -7 -7 -5 -4 -6 -10 -6 -6 -6 -10 -4 -6 -6 -3 -6 -8 -5 -7 -4 -6 -6 -6 -11 -4 -7 -3 -3 -4 -4 -6 -6 -6 -6 -3 -6 -5 
-10 -4 -7 -7 -7 -3 -5 -4 -9 -9 -9 -9 -5 -6 -3 -5 -5 -10 -7 -10 -4 -11 -4 -11 -11 -9 -14 -5 -5 -3 -8 -9 -5 -4 -2 -4 -6 -9 -5 -8 -6 -5 -5 -8 -7 -8 -7 -5 -10 -10 -7 -6 -7 -13 -8 -9 -8 -8 -4 -8 -13 -4 -6 -10 -6 -8 -8 -8 -11 -13 -9 -7 -7 -8 -6 -6 -8 -6 -6 -4 -5 -5 -4 -5 -4 -4 -4 -8 -10 -4 -8 -15 -8 -9 -10 -7 -6 -10 -8 -11 -5 -10 -6 -8 -7 -6 -6 -8 -8 -8 -8 -4 -4 -6 -5 -3 -3 -4 -9 -6 -6 -15 -5 -8 -15 -9 -9 -5 -14 -6 -4 -1 -8 -3 -3 -11 -13 -11 -6 -5 -6 -10 -15 -13 -7 -6 -11 -5 -3 -3 -8 -3 -6 -5 -9 -5 -9 -11 -6 -6 -4 -3 -12 -3 -9 -6 -8 -4 -6 -6 -15 -8 -14 -8 -4 -13 -13 -9 -9 -11 -9 -7 -7 -8 -6 -3 -7 -3 -4 -10 -5 -5 -10 -4 -5 -8 -8 -5 -5 -5 -5 -10 -10 -3 -10 -4 -7 -7 -4 -9 -7 -1 -9 -9 -3 -7 -3 -3 -3 -9 -12 -11 -3 -5 -5 -7 -7 -5 -7 -5 -7 -3 -10 -15 -15 -4 -6 -13 -1 -5 -5 -10 -7 -7 -9 -10 -4 -4 -4 -6 -4 -6 -6 -6 -6 -10 -7 -4 -4 -7 -6 -6 -5 -6 -5 -8 -4 -8 -5 -4 -9 -6 -7 -6 -7 -6 -6 -4 -3 -5 -9 -5 -5 -5 -9 -3 -5 -5 -2 -5 -7 -6 -15 -3 -5 -5 -5 -10 -3 -6 -2 -6 -3 -3 -5 -5 -5 -6 -2 -5 -4 
-9 -3 -6 -6 -6 -2 -4 -3 -8 -8 -8 -8 -4 -5 -2 -4 -6 -9 -6 -9 -3 -10 -5 -10 -10 -8 -13 -15 -4 -6 -7 -8 -4 -3 -4 -3 -5 -8 -4 -8 -8 -15 -15 -7 -6 -7 -15 -4 -9 -9 -6 -5 -10 -15 -7 -8 -7 -7 -3 -7 -12 -10 -5 -9 -5 -7 -10 -7 -10 -15 -10 -6 -6 -7 -5 -5 -7 -6 -5 -6 -4 -6 -3 -4 -3 -3 -3 -7 -9 -3 -7 -15 -7 -8 -9 -6 -5 -9 -7 -10 -4 -9 -5 -7 -6 -5 -6 -8 -8 -7 -7 -6 -3 -5 -4 -5 -2 -10 -8 -5 -5 -14 -4 -7 -14 -8 -8 -4 -13 -5 -3 0 -7 -4 -2 -10 -12 -15 -5 -8 -6 -9 -14 -12 -6 -10 -10 -5 -3 -3 -7 -2 -5 -4 -8 -4 -8 -10 -5 -5 -4 -4 -15 -2 -8 -5 -7 -8 -5 -5 -14 -7 -13 -7 -3 -12 -12 -8 -8 -10 -8 -6 -6 -7 -5 -2 -6 -2 -3 -9 -4 -4 -9 -3 -4 -7 -7 -4 -4 -4 -4 -9 -9 -2 -9 -3 -6 -6 -3 -8 -6 0 -8 -8 -2 -6 -2 -2 -2 -8 -11 -10 -2 -4 -4 -6 -6 -4 -6 -4 -6 -2 -9 -14 -14 -3 -5 -12 0 -4 -4 -9 -6 -6 -15 -15 -3 -3 -3 -5 -3 -5 -5 -5 -6 -9 -8 -3 -6 -6 -5 -6 -4 -5 -4 -8 -6 -7 -4 -6 -8 -8 -6 -5 -6 -5 -8 -3 -6 -4 -8 -4 -10 -4 -8 -2 -6 -4 -1 -4 -6 -6 -14 -15 -4 -4 -6 -9 -15 -5 -4 -6 -6 -6 -4 -6 -4 -5 -6 -4 -3 
-1
EOF
